c description: Random 3-CNF over 18 variables and 77 clauses
c generator: CNFgen (0.9.2)
c copyright: (C) 2012-2022 Massimo Lauria <massimo.lauria@uniroma1.it>
c url: https://massimolauria.net/cnfgen
c command line: cnfgen --output CNF_4.28/18_bit_77_923.cnf randkcnf 3 18 77
c
p cnf 18 77
6 9 12 0
-3 12 -18 0
7 12 -18 0
2 12 15 0
-1 16 -18 0
-7 10 15 0
-3 12 13 0
13 15 -17 0
-3 -13 -17 0
9 -11 -12 0
1 -4 -17 0
1 9 -15 0
-11 -14 15 0
4 9 -12 0
3 4 -9 0
4 -9 -13 0
-3 -6 -9 0
-4 8 -10 0
15 -16 -17 0
3 6 11 0
9 -12 13 0
6 -15 -17 0
3 -5 -9 0
4 -14 -16 0
2 5 8 0
-7 -13 -17 0
-4 -5 8 0
-11 -12 17 0
-5 14 15 0
-6 14 17 0
-9 12 -16 0
1 -3 14 0
-6 -10 -14 0
2 -6 -8 0
-6 -9 14 0
6 -12 17 0
-3 5 -8 0
4 -7 14 0
5 8 16 0
1 -13 14 0
1 -3 -7 0
-12 -16 -17 0
5 -8 -11 0
1 13 15 0
-9 11 -18 0
13 -15 -18 0
3 5 6 0
-4 7 9 0
7 -14 17 0
5 6 -12 0
5 15 17 0
3 4 12 0
-9 10 12 0
-5 -8 -16 0
8 -9 17 0
-5 -12 15 0
-1 -5 8 0
5 -6 -15 0
2 -8 -12 0
-2 -5 12 0
1 2 3 0
7 14 -15 0
10 -11 -14 0
1 3 -9 0
9 10 17 0
-5 8 -12 0
6 -7 14 0
8 10 -18 0
4 8 11 0
-1 13 15 0
-4 6 -7 0
-3 -5 15 0
-6 -11 -17 0
-6 7 -8 0
11 12 18 0
-4 16 18 0
7 12 16 0
